p tw 20 53
0 1
0 3
0 18
1 2
1 3
1 10
1 17
1 4
1 5
1 18
1 12
1 14
1 15
2 9
2 3
2 5
2 6
2 15
2 7
3 18
3 10
3 16
3 4
4 5
4 11
4 8
4 9
5 18
5 17
5 7
5 6
6 7
6 19
6 16
6 9
6 12
7 9
7 18
7 11
7 13
8 9
8 10
8 17
9 12
9 18
9 11
10 14
12 13
12 19
12 17
14 16
15 16
17 18
